
List of user-set options:

                                    Name   Value                used
                           compl_inf_tol = 1                     yes
                         constr_viol_tol = 1                     yes
                            dual_inf_tol = 1000                  yes
                           linear_solver = ma97                  yes
                              ma86_small = 1e-30                  no
                                  ma86_u = 0.0001                 no
                              ma97_order = best                  yes
                              ma97_small = 1e-30                 yes
                            ma97_switch1 = at_start              yes
                            ma97_switch2 = od_hd_reuse           yes
                                  ma97_u = 1e-06                 yes
                               ma97_umax = 0.5                   yes
                                max_iter = 1000                  yes
                    max_refinement_steps = 20                    yes
                    min_refinement_steps = 5                     yes
                                 mu_init = 1e-06                 yes
           mu_superlinear_decrease_power = 1.25                  yes
                   nlp_scaling_min_value = 1e-08                 yes
                        option_file_name = Preset_Case_173_pf.opt  yes
                             output_file = ./tmp/Preset_Case_173_pf.output  yes
                      print_user_options = yes                   yes
        required_infeasibility_reduction = 1                      no
                                     tol = 1e-08                 yes
                   warm_start_bound_frac = 1e-20                 yes
                   warm_start_bound_push = 1e-20                 yes
                   warm_start_init_point = yes                   yes
              warm_start_mult_bound_push = 1e-20                 yes
                warm_start_mult_init_max = 1e+40                 yes
             warm_start_slack_bound_frac = 1e-20                 yes
             warm_start_slack_bound_push = 1e-20                 yes

******************************************************************************
This program contains Ipopt, a library for large-scale nonlinear optimization.
 Ipopt is released as open source code under the Eclipse Public License (EPL).
         For more information visit http://projects.coin-or.org/Ipopt
******************************************************************************

This is Ipopt version 3.12.10, running with linear solver ma97.

Number of nonzeros in equality constraint Jacobian...:   123442
Number of nonzeros in inequality constraint Jacobian.:      213
Number of nonzeros in Lagrangian Hessian.............:    49069

Total number of variables............................:    31591
                     variables with only lower bounds:    12912
                variables with lower and upper bounds:    15130
                     variables with only upper bounds:        0
Total number of equality constraints.................:    31483
Total number of inequality constraints...............:       25
        inequality constraints with only lower bounds:        4
   inequality constraints with lower and upper bounds:        0
        inequality constraints with only upper bounds:       21

iter    objective    inf_pr   inf_du lg(mu)  ||d||  lg(rg) alpha_du alpha_pr  ls
   0 -5.1295419e+00 4.06e-03 1.02e+00  -6.0 0.00e+00    -  0.00e+00 0.00e+00   0
   1 -5.1290257e+00 3.71e-02 1.02e+00  -6.0 3.16e+05    -  1.09e-04 9.37e-05h  5
   2 -5.1300895e+00 3.70e-02 3.82e+01  -6.0 2.43e+03    -  1.68e-01 1.97e-03h  1
   3 -5.2959772e+00 3.62e+00 9.75e+02  -6.0 2.43e+03    -  1.20e-01 3.08e-01f  1
   4 -5.4018872e+00 5.73e+00 1.21e+03  -6.0 1.53e+03    -  6.11e-01 3.36e-01h  1
   5 -5.4588583e+00 5.95e+00 1.06e+03  -6.0 1.17e+03    -  3.66e-01 3.39e-01h  1
   6 -5.5052702e+00 7.68e+00 1.71e+03  -6.0 8.39e+02    -  5.62e-01 8.14e-01h  1
   7 -5.5131915e+00 7.57e+00 4.45e+03  -6.0 1.08e+04    -  3.90e-03 1.54e-02h  1
   8 -5.5131900e+00 7.57e+00 3.27e+03  -6.0 2.06e+03    -  6.89e-02 2.12e-04H  1
   9 -5.4952557e+00 1.43e+00 1.31e+04  -6.0 2.43e+02    -  6.08e-02 1.00e+00h  1
iter    objective    inf_pr   inf_du lg(mu)  ||d||  lg(rg) alpha_du alpha_pr  ls
  10 -5.4957106e+00 1.24e+00 7.17e+05  -6.0 5.44e+01  -4.0 1.23e-03 1.34e-01h  1
  11 -5.4956820e+00 1.61e-03 9.68e+01  -6.0 2.10e+00  -4.5 2.32e-01 1.00e+00h  1
  12 -5.4975487e+00 6.35e-02 3.26e+01  -6.0 5.94e+00  -5.0 6.72e-01 1.00e+00h  1
  13 -5.4982060e+00 3.29e-02 1.32e+01  -6.0 7.37e+00  -5.4 6.25e-01 1.00e+00h  1
  14 -5.5000014e+00 2.07e-02 2.49e+00  -6.0 2.04e+01  -5.9 1.00e+00 1.00e+00h  1
  15 -5.5050506e+00 1.23e-01 4.19e+00  -6.0 6.48e+01  -6.4 1.00e+00 1.00e+00h  1
  16 -5.5184987e+00 1.26e+00 1.11e+01  -6.0 2.54e+02  -6.9 8.65e-01 8.09e-01h  1
  17 -5.5175216e+00 7.16e-02 4.40e+02  -6.0 4.88e+01  -7.3 1.00e+00 1.00e+00h  1
  18 -5.5324298e+00 1.23e+00 1.67e+03  -6.0 4.09e+02  -6.9 4.94e-01 4.98e-01h  1
  19 -5.5510157e+00 1.14e+00 1.19e+05  -6.0 2.23e+02  -7.4 1.00e+00 7.97e-01h  1
iter    objective    inf_pr   inf_du lg(mu)  ||d||  lg(rg) alpha_du alpha_pr  ls
  20 -5.5605842e+00 9.74e-01 7.38e+05  -6.0 2.68e+02  -7.9 1.77e-01 3.02e-01h  1
  21 -5.5606200e+00 9.74e-01 7.50e+05  -6.0 1.78e+03  -8.3 7.46e-02 1.91e-04h  1
  22 -5.5629692e+00 9.48e-01 4.61e+06  -6.0 5.29e+02  -7.9 6.22e-01 3.94e-02f  1
  23 -5.5629648e+00 9.48e-01 4.64e+06  -6.0 4.05e+04  -8.4 1.46e-07 3.78e-06h  2
  24 -5.5629630e+00 9.48e-01 6.21e+05  -6.0 6.68e+02  -6.2 4.38e-04 1.47e-05h  1
  25 -5.5630472e+00 9.43e-01 6.96e+05  -6.0 1.71e+02  -6.6 2.68e-01 4.48e-03f  1
  26 -5.5776995e+00 8.19e-01 1.36e+07  -6.0 1.77e+02  -7.1 4.86e-03 8.34e-01f  1
  27 -5.5776671e+00 7.59e-01 1.26e+07  -6.0 1.89e+02  -7.6 1.88e-01 7.65e-02h  1
  28 -5.5810031e+00 6.78e-01 5.97e+06  -6.0 1.90e+02  -8.1 6.59e-01 5.27e-01h  1
  29 -5.5809238e+00 1.60e+00 5.96e+06  -6.0 1.27e+05  -8.5 6.67e-04 1.80e-03h  1
iter    objective    inf_pr   inf_du lg(mu)  ||d||  lg(rg) alpha_du alpha_pr  ls
  30 -5.5821623e+00 1.52e+00 5.67e+06  -6.0 1.09e+03    -  3.31e-02 4.77e-02f  1
  31 -5.5721256e+00 4.63e-01 1.49e+06  -6.0 6.38e+02    -  3.76e-05 7.36e-01H  1
  32 -5.5750624e+00 1.07e-02 1.63e+02  -6.0 5.84e+00  -5.4 7.80e-01 1.00e+00h  1
  33 -5.5810710e+00 1.26e+00 6.44e+01  -6.0 2.31e+02    -  4.24e-01 6.30e-01h  1
  34 -5.5774252e+00 1.04e-01 3.21e+04  -6.0 5.78e+01    -  6.42e-01 1.00e+00h  1
  35 -5.5838930e+00 7.61e-02 3.19e+04  -6.0 8.68e+01    -  1.00e+00 3.87e-01h  1
  36 -5.5849169e+00 5.74e-02 5.07e+02  -6.0 3.74e+01    -  1.00e+00 1.00e+00h  1
  37 -5.5841082e+00 4.58e-02 2.76e+04  -6.0 4.00e+01    -  1.00e+00 3.19e-01h  1
  38 -5.5841048e+00 4.57e-02 8.48e+03  -6.0 1.11e+03    -  5.02e-04 7.00e-04h  9
  39 -5.5798963e+00 1.01e-03 2.06e+04  -6.0 4.93e+00    -  5.21e-01 1.00e+00h  1
iter    objective    inf_pr   inf_du lg(mu)  ||d||  lg(rg) alpha_du alpha_pr  ls
  40 -5.5800677e+00 1.26e-02 1.21e+04  -6.0 1.75e+01  -5.9 6.88e-01 1.00e+00h  1
  41 -5.5800828e+00 9.19e-03 4.42e+01  -6.0 1.71e+01    -  1.00e+00 1.00e+00h  1
  42 -5.5800844e+00 7.90e-03 7.23e-01  -6.0 1.39e+01    -  1.00e+00 1.00e+00h  1
  43 -5.5800596e+00 2.45e-04 2.08e-02  -6.0 2.45e+00    -  1.00e+00 1.00e+00h  1
  44 -5.5800472e+00 1.20e-04 5.88e-03  -6.0 1.71e+00    -  1.00e+00 1.00e+00h  1
  45 -5.5800461e+00 2.32e-06 1.37e-04  -6.0 2.38e-01    -  1.00e+00 1.00e+00h  1
  46 -5.5800461e+00 4.95e-09 2.76e-07  -6.0 1.10e-02    -  1.00e+00 1.00e+00h  1
  47 -5.5805109e+00 6.22e+00 5.98e+01  -7.5 8.43e+02    -  6.23e-01 7.51e-01f  1
  48 -5.5805067e+00 1.84e+00 1.48e+01  -7.5 2.59e+02    -  8.69e-01 8.28e-01h  1
  49 -5.5805265e+00 8.25e-01 6.42e+00  -7.5 2.23e+02    -  1.00e+00 5.56e-01h  1
iter    objective    inf_pr   inf_du lg(mu)  ||d||  lg(rg) alpha_du alpha_pr  ls
  50 -5.5805393e+00 7.81e-01 1.11e-01  -7.5 1.14e+02    -  1.00e+00 1.00e+00h  1
  51 -5.5805504e+00 9.30e-02 2.65e-01  -7.5 4.86e+01    -  1.00e+00 6.96e-01h  1
  52 -5.5805503e+00 1.50e-05 1.17e-04  -7.5 2.86e-01    -  1.00e+00 1.00e+00h  1
  53 -5.5805503e+00 6.85e-09 7.84e-10  -7.5 8.05e-03    -  1.00e+00 1.00e+00h  1
  54 -5.5805520e+00 9.72e-03 9.81e-01  -9.0 2.97e+01    -  9.32e-01 8.25e-01h  1
  55 -5.5805522e+00 4.46e-04 1.79e-01  -9.0 5.23e+00    -  9.61e-01 1.00e+00h  1
  56 -5.5805522e+00 8.91e-10 4.32e-09  -9.0 7.90e-03    -  1.00e+00 1.00e+00h  1

Number of Iterations....: 56

                                   (scaled)                 (unscaled)
Objective...............:  -4.3598063879360236e+00   -5.5805521765581103e+00
Dual infeasibility......:   4.3228027743369747e-09    5.5331875511513279e-09
Constraint violation....:   5.6338756654396877e-10    8.9130480773746978e-10
Complementarity.........:   1.3277799164852668e-09    1.6995582931011414e-09
Overall NLP error.......:   4.3228027743369747e-09    5.5331875511513279e-09


Number of objective function evaluations             = 75
Number of objective gradient evaluations             = 57
Number of equality constraint evaluations            = 75
Number of inequality constraint evaluations          = 75
Number of equality constraint Jacobian evaluations   = 57
Number of inequality constraint Jacobian evaluations = 57
Number of Lagrangian Hessian evaluations             = 56
Total CPU secs in IPOPT (w/o function evaluations)   =    136.933
Total CPU secs in NLP function evaluations           =      2.339

EXIT: Optimal Solution Found.
